spring_18/ind_study/IWLS18/exps/ets18_exps/tianka_ckt/exp_1/1st_sol/tianka.cnf
p cnf 24 60
-4 -1 -2 0
4 1 -2 0
4 -1 2 0
-4 1 2 0
-5 -1 -2 0
5 1 -2 0
5 -1 2 0
-5 1 2 0
-6 2 3 0
6 -2 0
6 -3 0
-7 2 3 0
7 -2 0
7 -3 0
-8 -3 -3 0
8 3 0
8 3 0
-9 -3 -3 0
9 3 0
9 3 0
10 -6 -3 0
-10 6 0
-10 3 0
7 -21 12 0
7 21 -12 0
-7 -22 12 0
-7 22 -12 0
7 -23 13 0
7 23 -13 0
-7 -24 13 0
-7 24 -13 0
3 -12 11 0
3 12 -11 0
-3 -13 11 0
-3 13 -11 0
-14 4 10 0
14 -4 0
14 -10 0
-15 5 11 0
15 -5 0
15 -11 0
-16 -10 -8 0
16 10 -8 0
16 -10 8 0
-16 10 8 0
-17 -11 -9 0
17 11 -9 0
17 -11 9 0
-17 11 9 0
18 -14 -16 0
-18 14 0
-18 16 0
19 -15 -17 0
-19 15 0
-19 17 0
-20 -18 -19 0
20 18 -19 0
20 -18 19 0
-20 18 19 0
20 0
